unknown
(model
; cardinality of BoundSet is 2
(declare-sort BoundSet 0)
; rep: @uc_BoundSet_0
; rep: @uc_BoundSet_1
; cardinality of UnboundSet is 1
(declare-sort UnboundSet 0)
(declare-fun groundTerm_3 () UnboundSet)
(define-fun IsBouncing ((BOUND_VARIABLE_402 BoundSet) (BOUND_VARIABLE_403 BoundSet)) Bool true)
(define-fun IsWet ((BOUND_VARIABLE_406 BoundSet)) Bool true)
(define-fun IsPlaying ((BOUND_VARIABLE_402 BoundSet) (BOUND_VARIABLE_403 BoundSet)) Bool false)
(define-fun IsOutdoors ((BOUND_VARIABLE_406 BoundSet)) Bool false)
)
sat
(model
; cardinality of BoundSet is 1
(declare-sort BoundSet 0)
; rep: @uc_BoundSet_0
; cardinality of UnboundSet is 1
(declare-sort UnboundSet 0)
(declare-fun groundTerm_5 () UnboundSet)
(define-fun IsBouncing ((BOUND_VARIABLE_433 BoundSet) (BOUND_VARIABLE_434 BoundSet)) Bool true)
(define-fun IsWet ((BOUND_VARIABLE_437 BoundSet)) Bool true)
(define-fun IsPlaying ((BOUND_VARIABLE_433 BoundSet) (BOUND_VARIABLE_434 BoundSet)) Bool false)
(define-fun IsOutdoors ((BOUND_VARIABLE_437 BoundSet)) Bool false)
)
